VRPTWMS/instances/mip/fuel/5/N5-C_DV100-C_SV25_F5_11_No_1.lp
\ N5-C_DV100-C_SV25_F5_11

Minimize
  4.47 x_d0_c1 + 4.47 z_d0_c1 + 10.0 x_d0_c2 + 10.0 z_d0_c2 + 16.4 x_d0_c3 + 16.4 z_d0_c3 + 6.71 x_d0_c4 + 6.71 z_d0_c4 + 17.2 x_d0_c5 + 17.2 z_d0_c5 + 6.32 x_c1_c2 + 6.32 x_c2_c1 + 6.32 z_c1_c2 + 6.32 z_c2_c1 + 17.8 x_c1_c3 + 17.8 x_c3_c1 + 17.8 z_c1_c3 + 17.8 z_c3_c1 + 10.05 x_c1_c4 + 10.05 x_c4_c1 + 10.05 z_c1_c4 + 10.05 z_c4_c1 + 17.09 x_c1_c5 + 17.09 x_c5_c1 + 17.09 z_c1_c5 + 17.09 z_c5_c1 + 16.76 x_c2_c3 + 16.76 x_c3_c2 + 16.76 z_c2_c3 + 16.76 z_c3_c2 + 13.0 x_c2_c4 + 13.0 x_c4_c2 + 13.0 z_c2_c4 + 13.0 z_c4_c2 + 22.36 x_c2_c5 + 22.36 x_c5_c2 + 22.36 z_c2_c5 + 22.36 z_c5_c2 + 10.77 x_c3_c4 + 10.77 x_c4_c3 + 10.77 z_c3_c4 + 10.77 z_c4_c3 + 33.6 x_c3_c5 + 33.6 x_c5_c3 + 33.6 z_c3_c5 + 33.6 z_c5_c3 + 23.35 x_c4_c5 + 23.35 x_c5_c4 + 23.35 z_c4_c5 + 23.35 z_c5_c4 + 4.47 x_c1_dN + 4.47 z_c1_dN + 10.0 x_c2_dN + 10.0 z_c2_dN + 16.4 x_c3_dN + 16.4 z_c3_dN + 6.71 x_c4_dN + 6.71 z_c4_dN + 17.2 x_c5_dN + 17.2 z_c5_dN + 1000.0 x_d0_c1 + 1000.0 z_d0_c1 + 1000.0 x_d0_c2 + 1000.0 z_d0_c2 + 1000.0 x_d0_c3 + 1000.0 z_d0_c3 + 1000.0 x_d0_c4 + 1000.0 z_d0_c4 + 1000.0 x_d0_c5 + 1000.0 z_d0_c5
Subject To
  Successor_DV_c1: x_c1_c2 + x_c1_c3 + x_c1_c4 + x_c1_c5 + x_c1_dN = 1
  Successor_DV_c2: x_c2_c1 + x_c2_c3 + x_c2_c4 + x_c2_c5 + x_c2_dN = 1
  Successor_DV_c3: x_c3_c1 + x_c3_c2 + x_c3_c4 + x_c3_c5 + x_c3_dN = 1
  Successor_DV_c4: x_c4_c1 + x_c4_c2 + x_c4_c3 + x_c4_c5 + x_c4_dN = 1
  Successor_DV_c5: x_c5_c1 + x_c5_c2 + x_c5_c3 + x_c5_c4 + x_c5_dN = 1
  Successor_SV_c1: z_c1_c2 + z_c1_c3 + z_c1_c4 + z_c1_c5 + z_c1_dN <= 1
  Successor_SV_c2: z_c2_c1 + z_c2_c3 + z_c2_c4 + z_c2_c5 + z_c2_dN <= 1
  Successor_SV_c3: z_c3_c1 + z_c3_c2 + z_c3_c4 + z_c3_c5 + z_c3_dN <= 1
  Successor_SV_c4: z_c4_c1 + z_c4_c2 + z_c4_c3 + z_c4_c5 + z_c4_dN <= 1
  Successor_SV_c5: z_c5_c1 + z_c5_c2 + z_c5_c3 + z_c5_c4 + z_c5_dN <= 1
  Flow_DV_c1: x_d0_c1 + x_c2_c1 + x_c3_c1 + x_c4_c1 + x_c5_c1 - x_c1_dN - x_c1_c2 - x_c1_c3 - x_c1_c4 - x_c1_c5 = 0
  Flow_DV_c2: x_d0_c2 + x_c1_c2 + x_c3_c2 + x_c4_c2 + x_c5_c2 - x_c2_dN - x_c2_c1 - x_c2_c3 - x_c2_c4 - x_c2_c5 = 0
  Flow_DV_c3: x_d0_c3 + x_c1_c3 + x_c2_c3 + x_c4_c3 + x_c5_c3 - x_c3_dN - x_c3_c1 - x_c3_c2 - x_c3_c4 - x_c3_c5 = 0
  Flow_DV_c4: x_d0_c4 + x_c1_c4 + x_c2_c4 + x_c3_c4 + x_c5_c4 - x_c4_dN - x_c4_c1 - x_c4_c2 - x_c4_c3 - x_c4_c5 = 0
  Flow_DV_c5: x_d0_c5 + x_c1_c5 + x_c2_c5 + x_c3_c5 + x_c4_c5 - x_c5_dN - x_c5_c1 - x_c5_c2 - x_c5_c3 - x_c5_c4 = 0
  Flow_SV_c1: z_d0_c1 + z_c2_c1 + z_c3_c1 + z_c4_c1 + z_c5_c1 - z_c1_dN - z_c1_c2 - z_c1_c3 - z_c1_c4 - z_c1_c5 = 0
  Flow_SV_c2: z_d0_c2 + z_c1_c2 + z_c3_c2 + z_c4_c2 + z_c5_c2 - z_c2_dN - z_c2_c1 - z_c2_c3 - z_c2_c4 - z_c2_c5 = 0
  Flow_SV_c3: z_d0_c3 + z_c1_c3 + z_c2_c3 + z_c4_c3 + z_c5_c3 - z_c3_dN - z_c3_c1 - z_c3_c2 - z_c3_c4 - z_c3_c5 = 0
  Flow_SV_c4: z_d0_c4 + z_c1_c4 + z_c2_c4 + z_c3_c4 + z_c5_c4 - z_c4_dN - z_c4_c1 - z_c4_c2 - z_c4_c3 - z_c4_c5 = 0
  Flow_SV_c5: z_d0_c5 + z_c1_c5 + z_c2_c5 + z_c3_c5 + z_c4_c5 - z_c5_dN - z_c5_c1 - z_c5_c2 - z_c5_c3 - z_c5_c4 = 0
  travelDV_d0_c1: tauD_d0 - tauD_c1 + 101.1175 x_d0_c1 <= 100.0
  travelDV_d0_c2: tauD_d0 - tauD_c2 + 102.5 x_d0_c2 <= 100.0
  travelDV_d0_c3: tauD_d0 - tauD_c3 + 104.1 x_d0_c3 <= 100.0
  travelDV_d0_c4: tauD_d0 - tauD_c4 + 101.6775 x_d0_c4 <= 100.0
  travelDV_d0_c5: tauD_d0 - tauD_c5 + 104.3 x_d0_c5 <= 100.0
  travelDV_c1_c2: tauD_c1 - tauD_c2 + 107.58 x_c1_c2 + 8.0 p_1 <= 100.0
  travelDV_c1_c3: tauD_c1 - tauD_c3 + 110.45 x_c1_c3 + 8.0 p_1 <= 100.0
  travelDV_c1_c4: tauD_c1 - tauD_c4 + 108.5125 x_c1_c4 + 8.0 p_1 <= 100.0
  travelDV_c1_c5: tauD_c1 - tauD_c5 + 110.2725 x_c1_c5 + 8.0 p_1 <= 100.0
  travelDV_c2_c1: tauD_c2 - tauD_c1 + 106.58 x_c2_c1 + 8.0 p_2 <= 100.0
  travelDV_c2_c3: tauD_c2 - tauD_c3 + 109.19 x_c2_c3 + 8.0 p_2 <= 100.0
  travelDV_c2_c4: tauD_c2 - tauD_c4 + 108.25 x_c2_c4 + 8.0 p_2 <= 100.0
  travelDV_c2_c5: tauD_c2 - tauD_c5 + 110.59 x_c2_c5 + 8.0 p_2 <= 100.0
  travelDV_c3_c1: tauD_c3 - tauD_c1 + 109.45 x_c3_c1 + 8.0 p_3 <= 100.0
  travelDV_c3_c2: tauD_c3 - tauD_c2 + 109.19 x_c3_c2 + 8.0 p_3 <= 100.0
  travelDV_c3_c4: tauD_c3 - tauD_c4 + 107.6925 x_c3_c4 + 8.0 p_3 <= 100.0
  travelDV_c3_c5: tauD_c3 - tauD_c5 + 113.4 x_c3_c5 + 8.0 p_3 <= 100.0
  travelDV_c4_c1: tauD_c4 - tauD_c1 + 107.5125 x_c4_c1 + 8.0 p_4 <= 100.0
  travelDV_c4_c2: tauD_c4 - tauD_c2 + 108.25 x_c4_c2 + 8.0 p_4 <= 100.0
  travelDV_c4_c3: tauD_c4 - tauD_c3 + 107.6925 x_c4_c3 + 8.0 p_4 <= 100.0
  travelDV_c4_c5: tauD_c4 - tauD_c5 + 110.8375 x_c4_c5 + 8.0 p_4 <= 100.0
  travelDV_c5_c1: tauD_c5 - tauD_c1 + 110.2725 x_c5_c1 + 8.0 p_5 <= 100.0
  travelDV_c5_c2: tauD_c5 - tauD_c2 + 111.59 x_c5_c2 + 8.0 p_5 <= 100.0
  travelDV_c5_c3: tauD_c5 - tauD_c3 + 114.4 x_c5_c3 + 8.0 p_5 <= 100.0
  travelDV_c5_c4: tauD_c5 - tauD_c4 + 111.8375 x_c5_c4 + 8.0 p_5 <= 100.0
  TravelSV_d0_c1: tauS_d0 - tauS_c1 + 100.0 z_d0_c1 <= 98.8825
  TravelSV_d0_c2: tauS_d0 - tauS_c2 + 100.0 z_d0_c2 <= 97.5
  TravelSV_d0_c3: tauS_d0 - tauS_c3 + 100.0 z_d0_c3 <= 95.9
  TravelSV_d0_c4: tauS_d0 - tauS_c4 + 100.0 z_d0_c4 <= 98.3225
  TravelSV_d0_c5: tauS_d0 - tauS_c5 + 100.0 z_d0_c5 <= 95.7
  TravelSV_d0_dN: tauS_d0 - tauS_dN + 100.0 z_d0_dN <= 100.0
  TravelSV_c1_c2: tauS_c1 - tauS_c2 + 100.0 z_c1_c2 <= 90.42
  TravelSV_c1_c3: tauS_c1 - tauS_c3 + 100.0 z_c1_c3 <= 87.55
  TravelSV_c1_c4: tauS_c1 - tauS_c4 + 100.0 z_c1_c4 <= 89.4875
  TravelSV_c1_c5: tauS_c1 - tauS_c5 + 100.0 z_c1_c5 <= 87.7275
  TravelSV_c1_dN: tauS_c1 - tauS_dN + 100.0 z_c1_dN <= 90.8825
  TravelSV_c2_c1: tauS_c2 - tauS_c1 + 100.0 z_c2_c1 <= 90.42
  TravelSV_c2_c3: tauS_c2 - tauS_c3 + 100.0 z_c2_c3 <= 87.81
  TravelSV_c2_c4: tauS_c2 - tauS_c4 + 100.0 z_c2_c4 <= 88.75
  TravelSV_c2_c5: tauS_c2 - tauS_c5 + 100.0 z_c2_c5 <= 86.41
  TravelSV_c2_dN: tauS_c2 - tauS_dN + 100.0 z_c2_dN <= 89.5
  TravelSV_c3_c1: tauS_c3 - tauS_c1 + 100.0 z_c3_c1 <= 87.55
  TravelSV_c3_c2: tauS_c3 - tauS_c2 + 100.0 z_c3_c2 <= 87.81
  TravelSV_c3_c4: tauS_c3 - tauS_c4 + 100.0 z_c3_c4 <= 89.3075
  TravelSV_c3_c5: tauS_c3 - tauS_c5 + 100.0 z_c3_c5 <= 83.6
  TravelSV_c3_dN: tauS_c3 - tauS_dN + 100.0 z_c3_dN <= 87.9
  TravelSV_c4_c1: tauS_c4 - tauS_c1 + 100.0 z_c4_c1 <= 89.4875
  TravelSV_c4_c2: tauS_c4 - tauS_c2 + 100.0 z_c4_c2 <= 88.75
  TravelSV_c4_c3: tauS_c4 - tauS_c3 + 100.0 z_c4_c3 <= 89.3075
  TravelSV_c4_c5: tauS_c4 - tauS_c5 + 100.0 z_c4_c5 <= 86.1625
  TravelSV_c4_dN: tauS_c4 - tauS_dN + 100.0 z_c4_dN <= 90.3225
  TravelSV_c5_c1: tauS_c5 - tauS_c1 + 100.0 z_c5_c1 <= 87.7275
  TravelSV_c5_c2: tauS_c5 - tauS_c2 + 100.0 z_c5_c2 <= 86.41
  TravelSV_c5_c3: tauS_c5 - tauS_c3 + 100.0 z_c5_c3 <= 83.6
  TravelSV_c5_c4: tauS_c5 - tauS_c4 + 100.0 z_c5_c4 <= 86.1625
  TravelSV_c5_dN: tauS_c5 - tauS_dN + 100.0 z_c5_dN <= 87.7
  time_window_c1_e: tauD_c1 + 8.0 o_1 >= 25.0
  time_window_c1_l: tauD_c1 + 8.0 o_1 <= 40.0
  time_window_c2_e: tauD_c2 + 8.0 o_2 >= 50.0
  time_window_c2_l: tauD_c2 + 8.0 o_2 <= 65.0
  time_window_c3_e: tauD_c3 + 8.0 o_3 >= 0.0
  time_window_c3_l: tauD_c3 + 8.0 o_3 <= 100.0
  time_window_c4_e: tauD_c4 + 8.0 o_4 >= 5.0
  time_window_c4_l: tauD_c4 + 8.0 o_4 <= 20.0
  time_window_c5_e: tauD_c5 + 8.0 o_5 >= 10.0
  time_window_c5_l: tauD_c5 + 8.0 o_5 <= 25.0
  SyncA_c1_c2_c2: 6.0 o_1 + 100.0 x_c1_c2 - tauD_c2 - 1.58 z_c1_c2 + [ tauS_c2 * z_c1_c2 ] <= 98.42
  SyncA_c1_c2_c3: 6.0 o_1 + 100.0 x_c1_c2 - tauD_c2 - 4.45 z_c1_c3 + [ tauS_c3 * z_c1_c3 ] <= 98.42
  SyncA_c1_c2_c4: 6.0 o_1 + 100.0 x_c1_c2 - tauD_c2 - 2.5125 z_c1_c4 + [ tauS_c4 * z_c1_c4 ] <= 98.42
  SyncA_c1_c2_c5: 6.0 o_1 + 100.0 x_c1_c2 - tauD_c2 - 4.2725 z_c1_c5 + [ tauS_c5 * z_c1_c5 ] <= 98.42
  SyncA_c1_c2_dN: 6.0 o_1 + 100.0 x_c1_c2 - tauD_c2 - 1.1175 z_c1_dN + [ tauS_dN * z_c1_dN ] <= 98.42
  SyncA_c1_c3_c2: 6.0 o_1 + 100.0 x_c1_c3 - tauD_c3 - 1.58 z_c1_c2 + [ tauS_c2 * z_c1_c2 ] <= 95.55
  SyncA_c1_c3_c3: 6.0 o_1 + 100.0 x_c1_c3 - tauD_c3 - 4.45 z_c1_c3 + [ tauS_c3 * z_c1_c3 ] <= 95.55
  SyncA_c1_c3_c4: 6.0 o_1 + 100.0 x_c1_c3 - tauD_c3 - 2.5125 z_c1_c4 + [ tauS_c4 * z_c1_c4 ] <= 95.55
  SyncA_c1_c3_c5: 6.0 o_1 + 100.0 x_c1_c3 - tauD_c3 - 4.2725 z_c1_c5 + [ tauS_c5 * z_c1_c5 ] <= 95.55
  SyncA_c1_c3_dN: 6.0 o_1 + 100.0 x_c1_c3 - tauD_c3 - 1.1175 z_c1_dN + [ tauS_dN * z_c1_dN ] <= 95.55
  SyncA_c1_c4_c2: 6.0 o_1 + 100.0 x_c1_c4 - tauD_c4 - 1.58 z_c1_c2 + [ tauS_c2 * z_c1_c2 ] <= 97.4875
  SyncA_c1_c4_c3: 6.0 o_1 + 100.0 x_c1_c4 - tauD_c4 - 4.45 z_c1_c3 + [ tauS_c3 * z_c1_c3 ] <= 97.4875
  SyncA_c1_c4_c4: 6.0 o_1 + 100.0 x_c1_c4 - tauD_c4 - 2.5125 z_c1_c4 + [ tauS_c4 * z_c1_c4 ] <= 97.4875
  SyncA_c1_c4_c5: 6.0 o_1 + 100.0 x_c1_c4 - tauD_c4 - 4.2725 z_c1_c5 + [ tauS_c5 * z_c1_c5 ] <= 97.4875
  SyncA_c1_c4_dN: 6.0 o_1 + 100.0 x_c1_c4 - tauD_c4 - 1.1175 z_c1_dN + [ tauS_dN * z_c1_dN ] <= 97.4875
  SyncA_c1_c5_c2: 6.0 o_1 + 100.0 x_c1_c5 - tauD_c5 - 1.58 z_c1_c2 + [ tauS_c2 * z_c1_c2 ] <= 95.7275
  SyncA_c1_c5_c3: 6.0 o_1 + 100.0 x_c1_c5 - tauD_c5 - 4.45 z_c1_c3 + [ tauS_c3 * z_c1_c3 ] <= 95.7275
  SyncA_c1_c5_c4: 6.0 o_1 + 100.0 x_c1_c5 - tauD_c5 - 2.5125 z_c1_c4 + [ tauS_c4 * z_c1_c4 ] <= 95.7275
  SyncA_c1_c5_c5: 6.0 o_1 + 100.0 x_c1_c5 - tauD_c5 - 4.2725 z_c1_c5 + [ tauS_c5 * z_c1_c5 ] <= 95.7275
  SyncA_c1_c5_dN: 6.0 o_1 + 100.0 x_c1_c5 - tauD_c5 - 1.1175 z_c1_dN + [ tauS_dN * z_c1_dN ] <= 95.7275
  SyncA_c1_dN_c2: 6.0 o_1 + 100.0 x_c1_dN - tauD_dN - 1.58 z_c1_c2 + [ tauS_c2 * z_c1_c2 ] <= 98.8825
  SyncA_c1_dN_c3: 6.0 o_1 + 100.0 x_c1_dN - tauD_dN - 4.45 z_c1_c3 + [ tauS_c3 * z_c1_c3 ] <= 98.8825
  SyncA_c1_dN_c4: 6.0 o_1 + 100.0 x_c1_dN - tauD_dN - 2.5125 z_c1_c4 + [ tauS_c4 * z_c1_c4 ] <= 98.8825
  SyncA_c1_dN_c5: 6.0 o_1 + 100.0 x_c1_dN - tauD_dN - 4.2725 z_c1_c5 + [ tauS_c5 * z_c1_c5 ] <= 98.8825
  SyncA_c1_dN_dN: 6.0 o_1 + 100.0 x_c1_dN - tauD_dN - 1.1175 z_c1_dN + [ tauS_dN * z_c1_dN ] <= 98.8825
  SyncA_c2_c1_c1: 5.0 o_2 + 100.0 x_c2_c1 - tauD_c1 - 1.58 z_c2_c1 + [ tauS_c1 * z_c2_c1 ] <= 98.42
  SyncA_c2_c1_c3: 5.0 o_2 + 100.0 x_c2_c1 - tauD_c1 - 4.19 z_c2_c3 + [ tauS_c3 * z_c2_c3 ] <= 98.42
  SyncA_c2_c1_c4: 5.0 o_2 + 100.0 x_c2_c1 - tauD_c1 - 3.25 z_c2_c4 + [ tauS_c4 * z_c2_c4 ] <= 98.42
  SyncA_c2_c1_c5: 5.0 o_2 + 100.0 x_c2_c1 - tauD_c1 - 5.59 z_c2_c5 + [ tauS_c5 * z_c2_c5 ] <= 98.42
  SyncA_c2_c1_dN: 5.0 o_2 + 100.0 x_c2_c1 - tauD_c1 - 2.5 z_c2_dN + [ tauS_dN * z_c2_dN ] <= 98.42
  SyncA_c2_c3_c1: 5.0 o_2 + 100.0 x_c2_c3 - tauD_c3 - 1.58 z_c2_c1 + [ tauS_c1 * z_c2_c1 ] <= 95.81
  SyncA_c2_c3_c3: 5.0 o_2 + 100.0 x_c2_c3 - tauD_c3 - 4.19 z_c2_c3 + [ tauS_c3 * z_c2_c3 ] <= 95.81
  SyncA_c2_c3_c4: 5.0 o_2 + 100.0 x_c2_c3 - tauD_c3 - 3.25 z_c2_c4 + [ tauS_c4 * z_c2_c4 ] <= 95.81
  SyncA_c2_c3_c5: 5.0 o_2 + 100.0 x_c2_c3 - tauD_c3 - 5.59 z_c2_c5 + [ tauS_c5 * z_c2_c5 ] <= 95.81
  SyncA_c2_c3_dN: 5.0 o_2 + 100.0 x_c2_c3 - tauD_c3 - 2.5 z_c2_dN + [ tauS_dN * z_c2_dN ] <= 95.81
  SyncA_c2_c4_c1: 5.0 o_2 + 100.0 x_c2_c4 - tauD_c4 - 1.58 z_c2_c1 + [ tauS_c1 * z_c2_c1 ] <= 96.75
  SyncA_c2_c4_c3: 5.0 o_2 + 100.0 x_c2_c4 - tauD_c4 - 4.19 z_c2_c3 + [ tauS_c3 * z_c2_c3 ] <= 96.75
  SyncA_c2_c4_c4: 5.0 o_2 + 100.0 x_c2_c4 - tauD_c4 - 3.25 z_c2_c4 + [ tauS_c4 * z_c2_c4 ] <= 96.75
  SyncA_c2_c4_c5: 5.0 o_2 + 100.0 x_c2_c4 - tauD_c4 - 5.59 z_c2_c5 + [ tauS_c5 * z_c2_c5 ] <= 96.75
  SyncA_c2_c4_dN: 5.0 o_2 + 100.0 x_c2_c4 - tauD_c4 - 2.5 z_c2_dN + [ tauS_dN * z_c2_dN ] <= 96.75
  SyncA_c2_c5_c1: 5.0 o_2 + 100.0 x_c2_c5 - tauD_c5 - 1.58 z_c2_c1 + [ tauS_c1 * z_c2_c1 ] <= 94.41
  SyncA_c2_c5_c3: 5.0 o_2 + 100.0 x_c2_c5 - tauD_c5 - 4.19 z_c2_c3 + [ tauS_c3 * z_c2_c3 ] <= 94.41
  SyncA_c2_c5_c4: 5.0 o_2 + 100.0 x_c2_c5 - tauD_c5 - 3.25 z_c2_c4 + [ tauS_c4 * z_c2_c4 ] <= 94.41
  SyncA_c2_c5_c5: 5.0 o_2 + 100.0 x_c2_c5 - tauD_c5 - 5.59 z_c2_c5 + [ tauS_c5 * z_c2_c5 ] <= 94.41
  SyncA_c2_c5_dN: 5.0 o_2 + 100.0 x_c2_c5 - tauD_c5 - 2.5 z_c2_dN + [ tauS_dN * z_c2_dN ] <= 94.41
  SyncA_c2_dN_c1: 5.0 o_2 + 100.0 x_c2_dN - tauD_dN - 1.58 z_c2_c1 + [ tauS_c1 * z_c2_c1 ] <= 97.5
  SyncA_c2_dN_c3: 5.0 o_2 + 100.0 x_c2_dN - tauD_dN - 4.19 z_c2_c3 + [ tauS_c3 * z_c2_c3 ] <= 97.5
  SyncA_c2_dN_c4: 5.0 o_2 + 100.0 x_c2_dN - tauD_dN - 3.25 z_c2_c4 + [ tauS_c4 * z_c2_c4 ] <= 97.5
  SyncA_c2_dN_c5: 5.0 o_2 + 100.0 x_c2_dN - tauD_dN - 5.59 z_c2_c5 + [ tauS_c5 * z_c2_c5 ] <= 97.5
  SyncA_c2_dN_dN: 5.0 o_2 + 100.0 x_c2_dN - tauD_dN - 2.5 z_c2_dN + [ tauS_dN * z_c2_dN ] <= 97.5
  SyncA_c3_c1_c1: 5.0 o_3 + 100.0 x_c3_c1 - tauD_c1 - 4.45 z_c3_c1 + [ tauS_c1 * z_c3_c1 ] <= 95.55
  SyncA_c3_c1_c2: 5.0 o_3 + 100.0 x_c3_c1 - tauD_c1 - 4.19 z_c3_c2 + [ tauS_c2 * z_c3_c2 ] <= 95.55
  SyncA_c3_c1_c4: 5.0 o_3 + 100.0 x_c3_c1 - tauD_c1 - 2.6925 z_c3_c4 + [ tauS_c4 * z_c3_c4 ] <= 95.55
  SyncA_c3_c1_c5: 5.0 o_3 + 100.0 x_c3_c1 - tauD_c1 - 8.4 z_c3_c5 + [ tauS_c5 * z_c3_c5 ] <= 95.55
  SyncA_c3_c1_dN: 5.0 o_3 + 100.0 x_c3_c1 - tauD_c1 - 4.1 z_c3_dN + [ tauS_dN * z_c3_dN ] <= 95.55
  SyncA_c3_c2_c1: 5.0 o_3 + 100.0 x_c3_c2 - tauD_c2 - 4.45 z_c3_c1 + [ tauS_c1 * z_c3_c1 ] <= 95.81
  SyncA_c3_c2_c2: 5.0 o_3 + 100.0 x_c3_c2 - tauD_c2 - 4.19 z_c3_c2 + [ tauS_c2 * z_c3_c2 ] <= 95.81
  SyncA_c3_c2_c4: 5.0 o_3 + 100.0 x_c3_c2 - tauD_c2 - 2.6925 z_c3_c4 + [ tauS_c4 * z_c3_c4 ] <= 95.81
  SyncA_c3_c2_c5: 5.0 o_3 + 100.0 x_c3_c2 - tauD_c2 - 8.4 z_c3_c5 + [ tauS_c5 * z_c3_c5 ] <= 95.81
  SyncA_c3_c2_dN: 5.0 o_3 + 100.0 x_c3_c2 - tauD_c2 - 4.1 z_c3_dN + [ tauS_dN * z_c3_dN ] <= 95.81
  SyncA_c3_c4_c1: 5.0 o_3 + 100.0 x_c3_c4 - tauD_c4 - 4.45 z_c3_c1 + [ tauS_c1 * z_c3_c1 ] <= 97.3075
  SyncA_c3_c4_c2: 5.0 o_3 + 100.0 x_c3_c4 - tauD_c4 - 4.19 z_c3_c2 + [ tauS_c2 * z_c3_c2 ] <= 97.3075
  SyncA_c3_c4_c4: 5.0 o_3 + 100.0 x_c3_c4 - tauD_c4 - 2.6925 z_c3_c4 + [ tauS_c4 * z_c3_c4 ] <= 97.3075
  SyncA_c3_c4_c5: 5.0 o_3 + 100.0 x_c3_c4 - tauD_c4 - 8.4 z_c3_c5 + [ tauS_c5 * z_c3_c5 ] <= 97.3075
  SyncA_c3_c4_dN: 5.0 o_3 + 100.0 x_c3_c4 - tauD_c4 - 4.1 z_c3_dN + [ tauS_dN * z_c3_dN ] <= 97.3075
  SyncA_c3_c5_c1: 5.0 o_3 + 100.0 x_c3_c5 - tauD_c5 - 4.45 z_c3_c1 + [ tauS_c1 * z_c3_c1 ] <= 91.6
  SyncA_c3_c5_c2: 5.0 o_3 + 100.0 x_c3_c5 - tauD_c5 - 4.19 z_c3_c2 + [ tauS_c2 * z_c3_c2 ] <= 91.6
  SyncA_c3_c5_c4: 5.0 o_3 + 100.0 x_c3_c5 - tauD_c5 - 2.6925 z_c3_c4 + [ tauS_c4 * z_c3_c4 ] <= 91.6
  SyncA_c3_c5_c5: 5.0 o_3 + 100.0 x_c3_c5 - tauD_c5 - 8.4 z_c3_c5 + [ tauS_c5 * z_c3_c5 ] <= 91.6
  SyncA_c3_c5_dN: 5.0 o_3 + 100.0 x_c3_c5 - tauD_c5 - 4.1 z_c3_dN + [ tauS_dN * z_c3_dN ] <= 91.6
  SyncA_c3_dN_c1: 5.0 o_3 + 100.0 x_c3_dN - tauD_dN - 4.45 z_c3_c1 + [ tauS_c1 * z_c3_c1 ] <= 95.9
  SyncA_c3_dN_c2: 5.0 o_3 + 100.0 x_c3_dN - tauD_dN - 4.19 z_c3_c2 + [ tauS_c2 * z_c3_c2 ] <= 95.9
  SyncA_c3_dN_c4: 5.0 o_3 + 100.0 x_c3_dN - tauD_dN - 2.6925 z_c3_c4 + [ tauS_c4 * z_c3_c4 ] <= 95.9
  SyncA_c3_dN_c5: 5.0 o_3 + 100.0 x_c3_dN - tauD_dN - 8.4 z_c3_c5 + [ tauS_c5 * z_c3_c5 ] <= 95.9
  SyncA_c3_dN_dN: 5.0 o_3 + 100.0 x_c3_dN - tauD_dN - 4.1 z_c3_dN + [ tauS_dN * z_c3_dN ] <= 95.9
  SyncA_c4_c1_c1: 5.0 o_4 + 100.0 x_c4_c1 - tauD_c1 - 2.5125 z_c4_c1 + [ tauS_c1 * z_c4_c1 ] <= 97.4875
  SyncA_c4_c1_c2: 5.0 o_4 + 100.0 x_c4_c1 - tauD_c1 - 3.25 z_c4_c2 + [ tauS_c2 * z_c4_c2 ] <= 97.4875
  SyncA_c4_c1_c3: 5.0 o_4 + 100.0 x_c4_c1 - tauD_c1 - 2.6925 z_c4_c3 + [ tauS_c3 * z_c4_c3 ] <= 97.4875
  SyncA_c4_c1_c5: 5.0 o_4 + 100.0 x_c4_c1 - tauD_c1 - 5.8375 z_c4_c5 + [ tauS_c5 * z_c4_c5 ] <= 97.4875
  SyncA_c4_c1_dN: 5.0 o_4 + 100.0 x_c4_c1 - tauD_c1 - 1.6775 z_c4_dN + [ tauS_dN * z_c4_dN ] <= 97.4875
  SyncA_c4_c2_c1: 5.0 o_4 + 100.0 x_c4_c2 - tauD_c2 - 2.5125 z_c4_c1 + [ tauS_c1 * z_c4_c1 ] <= 96.75
  SyncA_c4_c2_c2: 5.0 o_4 + 100.0 x_c4_c2 - tauD_c2 - 3.25 z_c4_c2 + [ tauS_c2 * z_c4_c2 ] <= 96.75
  SyncA_c4_c2_c3: 5.0 o_4 + 100.0 x_c4_c2 - tauD_c2 - 2.6925 z_c4_c3 + [ tauS_c3 * z_c4_c3 ] <= 96.75
  SyncA_c4_c2_c5: 5.0 o_4 + 100.0 x_c4_c2 - tauD_c2 - 5.8375 z_c4_c5 + [ tauS_c5 * z_c4_c5 ] <= 96.75
  SyncA_c4_c2_dN: 5.0 o_4 + 100.0 x_c4_c2 - tauD_c2 - 1.6775 z_c4_dN + [ tauS_dN * z_c4_dN ] <= 96.75
  SyncA_c4_c3_c1: 5.0 o_4 + 100.0 x_c4_c3 - tauD_c3 - 2.5125 z_c4_c1 + [ tauS_c1 * z_c4_c1 ] <= 97.3075
  SyncA_c4_c3_c2: 5.0 o_4 + 100.0 x_c4_c3 - tauD_c3 - 3.25 z_c4_c2 + [ tauS_c2 * z_c4_c2 ] <= 97.3075
  SyncA_c4_c3_c3: 5.0 o_4 + 100.0 x_c4_c3 - tauD_c3 - 2.6925 z_c4_c3 + [ tauS_c3 * z_c4_c3 ] <= 97.3075
  SyncA_c4_c3_c5: 5.0 o_4 + 100.0 x_c4_c3 - tauD_c3 - 5.8375 z_c4_c5 + [ tauS_c5 * z_c4_c5 ] <= 97.3075
  SyncA_c4_c3_dN: 5.0 o_4 + 100.0 x_c4_c3 - tauD_c3 - 1.6775 z_c4_dN + [ tauS_dN * z_c4_dN ] <= 97.3075
  SyncA_c4_c5_c1: 5.0 o_4 + 100.0 x_c4_c5 - tauD_c5 - 2.5125 z_c4_c1 + [ tauS_c1 * z_c4_c1 ] <= 94.1625
  SyncA_c4_c5_c2: 5.0 o_4 + 100.0 x_c4_c5 - tauD_c5 - 3.25 z_c4_c2 + [ tauS_c2 * z_c4_c2 ] <= 94.1625
  SyncA_c4_c5_c3: 5.0 o_4 + 100.0 x_c4_c5 - tauD_c5 - 2.6925 z_c4_c3 + [ tauS_c3 * z_c4_c3 ] <= 94.1625
  SyncA_c4_c5_c5: 5.0 o_4 + 100.0 x_c4_c5 - tauD_c5 - 5.8375 z_c4_c5 + [ tauS_c5 * z_c4_c5 ] <= 94.1625
  SyncA_c4_c5_dN: 5.0 o_4 + 100.0 x_c4_c5 - tauD_c5 - 1.6775 z_c4_dN + [ tauS_dN * z_c4_dN ] <= 94.1625
  SyncA_c4_dN_c1: 5.0 o_4 + 100.0 x_c4_dN - tauD_dN - 2.5125 z_c4_c1 + [ tauS_c1 * z_c4_c1 ] <= 98.3225
  SyncA_c4_dN_c2: 5.0 o_4 + 100.0 x_c4_dN - tauD_dN - 3.25 z_c4_c2 + [ tauS_c2 * z_c4_c2 ] <= 98.3225
  SyncA_c4_dN_c3: 5.0 o_4 + 100.0 x_c4_dN - tauD_dN - 2.6925 z_c4_c3 + [ tauS_c3 * z_c4_c3 ] <= 98.3225
  SyncA_c4_dN_c5: 5.0 o_4 + 100.0 x_c4_dN - tauD_dN - 5.8375 z_c4_c5 + [ tauS_c5 * z_c4_c5 ] <= 98.3225
  SyncA_c4_dN_dN: 5.0 o_4 + 100.0 x_c4_dN - tauD_dN - 1.6775 z_c4_dN + [ tauS_dN * z_c4_dN ] <= 98.3225
  SyncA_c5_c1_c1: 6.0 o_5 + 100.0 x_c5_c1 - tauD_c1 - 4.2725 z_c5_c1 + [ tauS_c1 * z_c5_c1 ] <= 95.7275
  SyncA_c5_c1_c2: 6.0 o_5 + 100.0 x_c5_c1 - tauD_c1 - 5.59 z_c5_c2 + [ tauS_c2 * z_c5_c2 ] <= 95.7275
  SyncA_c5_c1_c3: 6.0 o_5 + 100.0 x_c5_c1 - tauD_c1 - 8.4 z_c5_c3 + [ tauS_c3 * z_c5_c3 ] <= 95.7275
  SyncA_c5_c1_c4: 6.0 o_5 + 100.0 x_c5_c1 - tauD_c1 - 5.8375 z_c5_c4 + [ tauS_c4 * z_c5_c4 ] <= 95.7275
  SyncA_c5_c1_dN: 6.0 o_5 + 100.0 x_c5_c1 - tauD_c1 - 4.3 z_c5_dN + [ tauS_dN * z_c5_dN ] <= 95.7275
  SyncA_c5_c2_c1: 6.0 o_5 + 100.0 x_c5_c2 - tauD_c2 - 4.2725 z_c5_c1 + [ tauS_c1 * z_c5_c1 ] <= 94.41
  SyncA_c5_c2_c2: 6.0 o_5 + 100.0 x_c5_c2 - tauD_c2 - 5.59 z_c5_c2 + [ tauS_c2 * z_c5_c2 ] <= 94.41
  SyncA_c5_c2_c3: 6.0 o_5 + 100.0 x_c5_c2 - tauD_c2 - 8.4 z_c5_c3 + [ tauS_c3 * z_c5_c3 ] <= 94.41
  SyncA_c5_c2_c4: 6.0 o_5 + 100.0 x_c5_c2 - tauD_c2 - 5.8375 z_c5_c4 + [ tauS_c4 * z_c5_c4 ] <= 94.41
  SyncA_c5_c2_dN: 6.0 o_5 + 100.0 x_c5_c2 - tauD_c2 - 4.3 z_c5_dN + [ tauS_dN * z_c5_dN ] <= 94.41
  SyncA_c5_c3_c1: 6.0 o_5 + 100.0 x_c5_c3 - tauD_c3 - 4.2725 z_c5_c1 + [ tauS_c1 * z_c5_c1 ] <= 91.6
  SyncA_c5_c3_c2: 6.0 o_5 + 100.0 x_c5_c3 - tauD_c3 - 5.59 z_c5_c2 + [ tauS_c2 * z_c5_c2 ] <= 91.6
  SyncA_c5_c3_c3: 6.0 o_5 + 100.0 x_c5_c3 - tauD_c3 - 8.4 z_c5_c3 + [ tauS_c3 * z_c5_c3 ] <= 91.6
  SyncA_c5_c3_c4: 6.0 o_5 + 100.0 x_c5_c3 - tauD_c3 - 5.8375 z_c5_c4 + [ tauS_c4 * z_c5_c4 ] <= 91.6
  SyncA_c5_c3_dN: 6.0 o_5 + 100.0 x_c5_c3 - tauD_c3 - 4.3 z_c5_dN + [ tauS_dN * z_c5_dN ] <= 91.6
  SyncA_c5_c4_c1: 6.0 o_5 + 100.0 x_c5_c4 - tauD_c4 - 4.2725 z_c5_c1 + [ tauS_c1 * z_c5_c1 ] <= 94.1625
  SyncA_c5_c4_c2: 6.0 o_5 + 100.0 x_c5_c4 - tauD_c4 - 5.59 z_c5_c2 + [ tauS_c2 * z_c5_c2 ] <= 94.1625
  SyncA_c5_c4_c3: 6.0 o_5 + 100.0 x_c5_c4 - tauD_c4 - 8.4 z_c5_c3 + [ tauS_c3 * z_c5_c3 ] <= 94.1625
  SyncA_c5_c4_c4: 6.0 o_5 + 100.0 x_c5_c4 - tauD_c4 - 5.8375 z_c5_c4 + [ tauS_c4 * z_c5_c4 ] <= 94.1625
  SyncA_c5_c4_dN: 6.0 o_5 + 100.0 x_c5_c4 - tauD_c4 - 4.3 z_c5_dN + [ tauS_dN * z_c5_dN ] <= 94.1625
  SyncA_c5_dN_c1: 6.0 o_5 + 100.0 x_c5_dN - tauD_dN - 4.2725 z_c5_c1 + [ tauS_c1 * z_c5_c1 ] <= 95.7
  SyncA_c5_dN_c2: 6.0 o_5 + 100.0 x_c5_dN - tauD_dN - 5.59 z_c5_c2 + [ tauS_c2 * z_c5_c2 ] <= 95.7
  SyncA_c5_dN_c3: 6.0 o_5 + 100.0 x_c5_dN - tauD_dN - 8.4 z_c5_c3 + [ tauS_c3 * z_c5_c3 ] <= 95.7
  SyncA_c5_dN_c4: 6.0 o_5 + 100.0 x_c5_dN - tauD_dN - 5.8375 z_c5_c4 + [ tauS_c4 * z_c5_c4 ] <= 95.7
  SyncA_c5_dN_dN: 6.0 o_5 + 100.0 x_c5_dN - tauD_dN - 4.3 z_c5_dN + [ tauS_dN * z_c5_dN ] <= 95.7
  SVFirst_c1_c2: tauS_c2 - tauD_c1 + 6.0 o_1 - 100.0 z_c1_c2 >= -84.42
  SVFirst_c1_c3: tauS_c3 - tauD_c1 + 6.0 o_1 - 100.0 z_c1_c3 >= -81.55
  SVFirst_c1_c4: tauS_c4 - tauD_c1 + 6.0 o_1 - 100.0 z_c1_c4 >= -83.4875
  SVFirst_c1_c5: tauS_c5 - tauD_c1 + 6.0 o_1 - 100.0 z_c1_c5 >= -81.72749999999999
  SVFirst_c1_dN:  tauS_dN - tauD_c1 + 6.0 o_1 - 100.0 z_c1_dN >= -84.8825
  SVFirst_c2_c1: tauS_c1 - tauD_c2 + 5.0 o_2 - 100.0 z_c2_c1 >= -85.42
  SVFirst_c2_c3: tauS_c3 - tauD_c2 + 5.0 o_2 - 100.0 z_c2_c3 >= -82.81
  SVFirst_c2_c4: tauS_c4 - tauD_c2 + 5.0 o_2 - 100.0 z_c2_c4 >= -83.75
  SVFirst_c2_c5: tauS_c5 - tauD_c2 + 5.0 o_2 - 100.0 z_c2_c5 >= -81.41
  SVFirst_c2_dN:  tauS_dN - tauD_c2 + 5.0 o_2 - 100.0 z_c2_dN >= -84.5
  SVFirst_c3_c1: tauS_c1 - tauD_c3 + 5.0 o_3 - 100.0 z_c3_c1 >= -82.55
  SVFirst_c3_c2: tauS_c2 - tauD_c3 + 5.0 o_3 - 100.0 z_c3_c2 >= -82.81
  SVFirst_c3_c4: tauS_c4 - tauD_c3 + 5.0 o_3 - 100.0 z_c3_c4 >= -84.3075
  SVFirst_c3_c5: tauS_c5 - tauD_c3 + 5.0 o_3 - 100.0 z_c3_c5 >= -78.6
  SVFirst_c3_dN:  tauS_dN - tauD_c3 + 5.0 o_3 - 100.0 z_c3_dN >= -82.9
  SVFirst_c4_c1: tauS_c1 - tauD_c4 + 5.0 o_4 - 100.0 z_c4_c1 >= -84.4875
  SVFirst_c4_c2: tauS_c2 - tauD_c4 + 5.0 o_4 - 100.0 z_c4_c2 >= -83.75
  SVFirst_c4_c3: tauS_c3 - tauD_c4 + 5.0 o_4 - 100.0 z_c4_c3 >= -84.3075
  SVFirst_c4_c5: tauS_c5 - tauD_c4 + 5.0 o_4 - 100.0 z_c4_c5 >= -81.1625
  SVFirst_c4_dN:  tauS_dN - tauD_c4 + 5.0 o_4 - 100.0 z_c4_dN >= -85.3225
  SVFirst_c5_c1: tauS_c1 - tauD_c5 + 6.0 o_5 - 100.0 z_c5_c1 >= -81.72749999999999
  SVFirst_c5_c2: tauS_c2 - tauD_c5 + 6.0 o_5 - 100.0 z_c5_c2 >= -80.41
  SVFirst_c5_c3: tauS_c3 - tauD_c5 + 6.0 o_5 - 100.0 z_c5_c3 >= -77.6
  SVFirst_c5_c4: tauS_c4 - tauD_c5 + 6.0 o_5 - 100.0 z_c5_c4 >= -80.1625
  SVFirst_c5_dN:  tauS_dN - tauD_c5 + 6.0 o_5 - 100.0 z_c5_dN >= -81.7
  Precedence_Swap_c1:  p_1 - z_d0_c1 - z_c2_c1 - z_c3_c1 - z_c4_c1 - z_c5_c1 = 0
  Precedence_Swap_c2:  p_2 - z_d0_c2 - z_c1_c2 - z_c3_c2 - z_c4_c2 - z_c5_c2 = 0
  Precedence_Swap_c3:  p_3 - z_d0_c3 - z_c1_c3 - z_c2_c3 - z_c4_c3 - z_c5_c3 = 0
  Precedence_Swap_c4:  p_4 - z_d0_c4 - z_c1_c4 - z_c2_c4 - z_c3_c4 - z_c5_c4 = 0
  Precedence_Swap_c5:  p_5 - z_d0_c5 - z_c1_c5 - z_c2_c5 - z_c3_c5 - z_c4_c5 = 0
  Order_c1:  o_1 - p_1 <= 0
  Order_c2:  o_2 - p_2 <= 0
  Order_c3:  o_3 - p_3 <= 0
  Order_c4:  o_4 - p_4 <= 0
  Order_c5:  o_5 - p_5 <= 0
  WorkingTimeS_c1:  tauS_c1 <= 90.8825
  WorkingTimeS_c2:  tauS_c2 <= 89.5
  WorkingTimeS_c3:  tauS_c3 <= 87.9
  WorkingTimeS_c4:  tauS_c4 <= 90.3225
  WorkingTimeS_c5:  tauS_c5 <= 87.7
  Freight_c1_c2:  k_c2 - k_c1 + 100.0 x_c1_c2 <= 95.0
  Freight_c1_c3:  k_c3 - k_c1 + 100.0 x_c1_c3 <= 95.0
  Freight_c1_c4:  k_c4 - k_c1 + 100.0 x_c1_c4 <= 95.0
  Freight_c1_c5:  k_c5 - k_c1 + 100.0 x_c1_c5 <= 95.0
  Freight_c1_dN:  k_dN - k_c1 + 100.0 x_c1_dN <= 95.0
  Freight_c2_c1:  k_c1 - k_c2 + 100.0 x_c2_c1 <= 97.0
  Freight_c2_c3:  k_c3 - k_c2 + 100.0 x_c2_c3 <= 97.0
  Freight_c2_c4:  k_c4 - k_c2 + 100.0 x_c2_c4 <= 97.0
  Freight_c2_c5:  k_c5 - k_c2 + 100.0 x_c2_c5 <= 97.0
  Freight_c2_dN:  k_dN - k_c2 + 100.0 x_c2_dN <= 97.0
  Freight_c3_c1:  k_c1 - k_c3 + 100.0 x_c3_c1 <= 95.0
  Freight_c3_c2:  k_c2 - k_c3 + 100.0 x_c3_c2 <= 95.0
  Freight_c3_c4:  k_c4 - k_c3 + 100.0 x_c3_c4 <= 95.0
  Freight_c3_c5:  k_c5 - k_c3 + 100.0 x_c3_c5 <= 95.0
  Freight_c3_dN:  k_dN - k_c3 + 100.0 x_c3_dN <= 95.0
  Freight_c4_c1:  k_c1 - k_c4 + 100.0 x_c4_c1 <= 94.0
  Freight_c4_c2:  k_c2 - k_c4 + 100.0 x_c4_c2 <= 94.0
  Freight_c4_c3:  k_c3 - k_c4 + 100.0 x_c4_c3 <= 94.0
  Freight_c4_c5:  k_c5 - k_c4 + 100.0 x_c4_c5 <= 94.0
  Freight_c4_dN:  k_dN - k_c4 + 100.0 x_c4_dN <= 94.0
  Freight_c5_c1:  k_c1 - k_c5 + 100.0 x_c5_c1 <= 90.0
  Freight_c5_c2:  k_c2 - k_c5 + 100.0 x_c5_c2 <= 90.0
  Freight_c5_c3:  k_c3 - k_c5 + 100.0 x_c5_c3 <= 90.0
  Freight_c5_c4:  k_c4 - k_c5 + 100.0 x_c5_c4 <= 90.0
  Freight_c5_dN:  k_dN - k_c5 + 100.0 x_c5_dN <= 90.0
  FuelDV_d0_c1:  phi_c1 + 5.299 x_d0_c1 <= 10.0
  FuelDV_d0_c2:  phi_c2 + 5.6690000000000005 x_d0_c2 <= 10.0
  FuelDV_d0_c3:  phi_c3 + 6.0972 x_d0_c3 <= 10.0
  FuelDV_d0_c4:  phi_c4 + 5.4489 x_d0_c4 <= 10.0
  FuelDV_d0_c5:  phi_c5 + 6.1507000000000005 x_d0_c5 <= 10.0
  FuelDV_c1_c2:  phi_c2 - phi_c1 + 5.4228 x_c1_c2 + [ phi_c1 * p_1 - 5.0 x_c1_c2 * p_1 ] <= 5.0
  FuelDV_c1_c3:  phi_c3 - phi_c1 + 6.1908 x_c1_c3 + [ phi_c1 * p_1 - 5.0 x_c1_c3 * p_1 ] <= 5.0
  FuelDV_c1_c4:  phi_c4 - phi_c1 + 5.6723 x_c1_c4 + [ phi_c1 * p_1 - 5.0 x_c1_c4 * p_1 ] <= 5.0
  FuelDV_c1_c5:  phi_c5 - phi_c1 + 6.1433 x_c1_c5 + [ phi_c1 * p_1 - 5.0 x_c1_c5 * p_1 ] <= 5.0
  FuelDV_c1_dN:  phi_dN - phi_c1 + 5.299 x_c1_dN + [ phi_c1 * p_1 - 5.0 x_c1_dN * p_1 ] <= 5.0
  FuelDV_c2_c1:  phi_c1 - phi_c2 + 5.4228 x_c2_c1 + [ phi_c2 * p_2 - 5.0 x_c2_c1 * p_2 ] <= 5.0
  FuelDV_c2_c3:  phi_c3 - phi_c2 + 6.1212 x_c2_c3 + [ phi_c2 * p_2 - 5.0 x_c2_c3 * p_2 ] <= 5.0
  FuelDV_c2_c4:  phi_c4 - phi_c2 + 5.8697 x_c2_c4 + [ phi_c2 * p_2 - 5.0 x_c2_c4 * p_2 ] <= 5.0
  FuelDV_c2_c5:  phi_c5 - phi_c2 + 6.4959 x_c2_c5 + [ phi_c2 * p_2 - 5.0 x_c2_c5 * p_2 ] <= 5.0
  FuelDV_c2_dN:  phi_dN - phi_c2 + 5.6690000000000005 x_c2_dN + [ phi_c2 * p_2 - 5.0 x_c2_dN * p_2 ] <= 5.0
  FuelDV_c3_c1:  phi_c1 - phi_c3 + 6.1908 x_c3_c1 + [ phi_c3 * p_3 - 5.0 x_c3_c1 * p_3 ] <= 5.0
  FuelDV_c3_c2:  phi_c2 - phi_c3 + 6.1212 x_c3_c2 + [ phi_c3 * p_3 - 5.0 x_c3_c2 * p_3 ] <= 5.0
  FuelDV_c3_c4:  phi_c4 - phi_c3 + 5.7205 x_c3_c4 + [ phi_c3 * p_3 - 5.0 x_c3_c4 * p_3 ] <= 5.0
  FuelDV_c3_c5:  phi_c5 - phi_c3 + 7.2478 x_c3_c5 + [ phi_c3 * p_3 - 5.0 x_c3_c5 * p_3 ] <= 5.0
  FuelDV_c3_dN:  phi_dN - phi_c3 + 6.0972 x_c3_dN + [ phi_c3 * p_3 - 5.0 x_c3_dN * p_3 ] <= 5.0
  FuelDV_c4_c1:  phi_c1 - phi_c4 + 5.6723 x_c4_c1 + [ phi_c4 * p_4 - 5.0 x_c4_c1 * p_4 ] <= 5.0
  FuelDV_c4_c2:  phi_c2 - phi_c4 + 5.8697 x_c4_c2 + [ phi_c4 * p_4 - 5.0 x_c4_c2 * p_4 ] <= 5.0
  FuelDV_c4_c3:  phi_c3 - phi_c4 + 5.7205 x_c4_c3 + [ phi_c4 * p_4 - 5.0 x_c4_c3 * p_4 ] <= 5.0
  FuelDV_c4_c5:  phi_c5 - phi_c4 + 6.5621 x_c4_c5 + [ phi_c4 * p_4 - 5.0 x_c4_c5 * p_4 ] <= 5.0
  FuelDV_c4_dN:  phi_dN - phi_c4 + 5.4489 x_c4_dN + [ phi_c4 * p_4 - 5.0 x_c4_dN * p_4 ] <= 5.0
  FuelDV_c5_c1:  phi_c1 - phi_c5 + 6.1433 x_c5_c1 + [ phi_c5 * p_5 - 5.0 x_c5_c1 * p_5 ] <= 5.0
  FuelDV_c5_c2:  phi_c2 - phi_c5 + 6.4959 x_c5_c2 + [ phi_c5 * p_5 - 5.0 x_c5_c2 * p_5 ] <= 5.0
  FuelDV_c5_c3:  phi_c3 - phi_c5 + 7.2478 x_c5_c3 + [ phi_c5 * p_5 - 5.0 x_c5_c3 * p_5 ] <= 5.0
  FuelDV_c5_c4:  phi_c4 - phi_c5 + 6.5621 x_c5_c4 + [ phi_c5 * p_5 - 5.0 x_c5_c4 * p_5 ] <= 5.0
  FuelDV_c5_dN:  phi_dN - phi_c5 + 6.1507000000000005 x_c5_dN + [ phi_c5 * p_5 - 5.0 x_c5_dN * p_5 ] <= 5.0
  FreightSV_c1_c2:  pi_c2 - pi_c1 - phi_c1 + 25.0 z_c1_c2 <= 20.0
  FreightSV_c1_c3:  pi_c3 - pi_c1 - phi_c1 + 25.0 z_c1_c3 <= 20.0
  FreightSV_c1_c4:  pi_c4 - pi_c1 - phi_c1 + 25.0 z_c1_c4 <= 20.0
  FreightSV_c1_c5:  pi_c5 - pi_c1 - phi_c1 + 25.0 z_c1_c5 <= 20.0
  FreightSV_c1_dN:  pi_dN - pi_c1 - phi_c1 + 25.0 z_c1_dN <= 20.0
  FreightSV_c2_c1:  pi_c1 - pi_c2 - phi_c2 + 25.0 z_c2_c1 <= 20.0
  FreightSV_c2_c3:  pi_c3 - pi_c2 - phi_c2 + 25.0 z_c2_c3 <= 20.0
  FreightSV_c2_c4:  pi_c4 - pi_c2 - phi_c2 + 25.0 z_c2_c4 <= 20.0
  FreightSV_c2_c5:  pi_c5 - pi_c2 - phi_c2 + 25.0 z_c2_c5 <= 20.0
  FreightSV_c2_dN:  pi_dN - pi_c2 - phi_c2 + 25.0 z_c2_dN <= 20.0
  FreightSV_c3_c1:  pi_c1 - pi_c3 - phi_c3 + 25.0 z_c3_c1 <= 20.0
  FreightSV_c3_c2:  pi_c2 - pi_c3 - phi_c3 + 25.0 z_c3_c2 <= 20.0
  FreightSV_c3_c4:  pi_c4 - pi_c3 - phi_c3 + 25.0 z_c3_c4 <= 20.0
  FreightSV_c3_c5:  pi_c5 - pi_c3 - phi_c3 + 25.0 z_c3_c5 <= 20.0
  FreightSV_c3_dN:  pi_dN - pi_c3 - phi_c3 + 25.0 z_c3_dN <= 20.0
  FreightSV_c4_c1:  pi_c1 - pi_c4 - phi_c4 + 25.0 z_c4_c1 <= 20.0
  FreightSV_c4_c2:  pi_c2 - pi_c4 - phi_c4 + 25.0 z_c4_c2 <= 20.0
  FreightSV_c4_c3:  pi_c3 - pi_c4 - phi_c4 + 25.0 z_c4_c3 <= 20.0
  FreightSV_c4_c5:  pi_c5 - pi_c4 - phi_c4 + 25.0 z_c4_c5 <= 20.0
  FreightSV_c4_dN:  pi_dN - pi_c4 - phi_c4 + 25.0 z_c4_dN <= 20.0
  FreightSV_c5_c1:  pi_c1 - pi_c5 - phi_c5 + 25.0 z_c5_c1 <= 20.0
  FreightSV_c5_c2:  pi_c2 - pi_c5 - phi_c5 + 25.0 z_c5_c2 <= 20.0
  FreightSV_c5_c3:  pi_c3 - pi_c5 - phi_c5 + 25.0 z_c5_c3 <= 20.0
  FreightSV_c5_c4:  pi_c4 - pi_c5 - phi_c5 + 25.0 z_c5_c4 <= 20.0
  FreightSV_c5_dN:  pi_dN - pi_c5 - phi_c5 + 25.0 z_c5_dN <= 20.0
  WorkingTimeD_c1:  tauD_c1 + 8.0 p_1 <= 92.8825
  WorkingTimeD_c2:  tauD_c2 + 8.0 p_2 <= 92.5
  WorkingTimeD_c3:  tauD_c3 + 8.0 p_3 <= 90.9
  WorkingTimeD_c4:  tauD_c4 + 8.0 p_4 <= 93.3225
  WorkingTimeD_c5:  tauD_c5 + 8.0 p_5 <= 89.7
Bounds
0 <= k_c1 <= 100.0
0 <= k_c2 <= 100.0
0 <= k_c3 <= 100.0
0 <= k_c4 <= 100.0
0 <= k_c5 <= 100.0
0 <= k_dN <= 100.0
0 <= phi_c1 <= 5.0
0 <= phi_c2 <= 5.0
0 <= phi_c3 <= 5.0
0 <= phi_c4 <= 5.0
0 <= phi_c5 <= 5.0
0 <= phi_dN <= 5.0
0 <= pi_c1 <= 25.0
0 <= pi_c2 <= 25.0
0 <= pi_c3 <= 25.0
0 <= pi_c4 <= 25.0
0 <= pi_c5 <= 25.0
0 <= pi_dN <= 25.0
0 <= tauD_c1 <= 100.0
0 <= tauD_c2 <= 100.0
0 <= tauD_c3 <= 100.0
0 <= tauD_c4 <= 100.0
0 <= tauD_c5 <= 100.0
0 <= tauD_d0 <= 100.0
0 <= tauD_dN <= 100.0
0 <= tauS_c1 <= 100.0
0 <= tauS_c2 <= 100.0
0 <= tauS_c3 <= 100.0
0 <= tauS_c4 <= 100.0
0 <= tauS_c5 <= 100.0
0 <= tauS_d0 <= 100.0
0 <= tauS_dN <= 100.0
Generals
  k_c1
  k_c2
  k_c3
  k_c4
  k_c5
  k_dN
  phi_c1
  phi_c2
  phi_c3
  phi_c4
  phi_c5
  phi_dN
  pi_c1
  pi_c2
  pi_c3
  pi_c4
  pi_c5
  pi_dN
  tauD_c1
  tauD_c2
  tauD_c3
  tauD_c4
  tauD_c5
  tauD_d0
  tauD_dN
  tauS_c1
  tauS_c2
  tauS_c3
  tauS_c4
  tauS_c5
  tauS_d0
  tauS_dN
Binary
  o_1
  o_2
  o_3
  o_4
  o_5
  p_1
  p_2
  p_3
  p_4
  p_5
  x_c1_c2
  x_c1_c3
  x_c1_c4
  x_c1_c5
  x_c1_dN
  x_c2_c1
  x_c2_c3
  x_c2_c4
  x_c2_c5
  x_c2_dN
  x_c3_c1
  x_c3_c2
  x_c3_c4
  x_c3_c5
  x_c3_dN
  x_c4_c1
  x_c4_c2
  x_c4_c3
  x_c4_c5
  x_c4_dN
  x_c5_c1
  x_c5_c2
  x_c5_c3
  x_c5_c4
  x_c5_dN
  x_d0_c1
  x_d0_c2
  x_d0_c3
  x_d0_c4
  x_d0_c5
  z_c1_c2
  z_c1_c3
  z_c1_c4
  z_c1_c5
  z_c1_dN
  z_c2_c1
  z_c2_c3
  z_c2_c4
  z_c2_c5
  z_c2_dN
  z_c3_c1
  z_c3_c2
  z_c3_c4
  z_c3_c5
  z_c3_dN
  z_c4_c1
  z_c4_c2
  z_c4_c3
  z_c4_c5
  z_c4_dN
  z_c5_c1
  z_c5_c2
  z_c5_c3
  z_c5_c4
  z_c5_dN
  z_d0_c1
  z_d0_c2
  z_d0_c3
  z_d0_c4
  z_d0_c5
End
